data/mip_solutions/furman_sahinidis/transshipment/7sp-torw1_cplex.sol
Elapsed time: 0.0226671695709
Nodes explored: 0
Upper bound: 10.0
Lower bound: 10.0
y[0,0]=1
y[1,1]=1
y[1,2]=1
y[2,0]=1
y[2,1]=1
y[2,2]=1
y[2,3]=1
y[3,1]=1
y[3,2]=1
y[4,2]=1
q[0,0,4]=70.32
q[0,0,5]=168.768
q[0,0,6]=112.512
q[1,1,5]=101.28
q[1,2,2]=185.68
q[1,2,3]=549.96
q[1,2,4]=99.92
q[2,0,3]=91.44
q[2,0,4]=21.12
q[2,0,5]=50.688
q[2,0,6]=70.368
q[2,1,3]=488.832
q[2,1,4]=72.96
q[2,1,5]=51.424
q[2,2,3]=211.4
q[2,2,4]=24.08
q[2,3,6]=347.424
q[3,1,5]=22.4
q[3,2,1]=123.2
q[3,2,2]=123.2
q[3,2,3]=375.2
q[3,2,4]=56.0
q[4,2,1]=74.8
q[4,2,2]=87.12
q[4,2,3]=69.44
r[1,4]=15.52
r[2,6]=181.472
r[3,1]=61.6
r[4,2]=156.56
r[4,3]=69.44
