data/mip_solutions/furman_sahinidis/transshipment/7sp-torw1_cplex.log

Log started (V12.6.3.0) Tue Jun  6 14:39:03 2017

New value for default parallel thread count: 1

Problem '/tmp/tmpEtt7L9.pyomo.lp' read.
Read time = 0.00 sec. (0.02 ticks)

Problem name         : /tmp/tmpEtt7L9.pyomo.lp
Objective sense      : Minimize
Variables            :     202  [Nneg: 181,  Binary: 20,  General Integer: 1]
Objective nonzeros   :       1
Linear constraints   :      87  [Less: 20,  Equal: 67]
  Nonzeros           :     541
  RHS nonzeros       :      31

Variables            : Min LB: 0.000000         Max UB: 1.000000       
Objective nonzeros   : Min   : 1.000000         Max   : 1.000000       
Linear constraints   :
  Nonzeros           : Min   : 1.000000         Max   : 909.8320       
  RHS nonzeros       : Min   : 1.000000         Max   : 1206.000       
Tried aggregator 3 times.
MIP Presolve eliminated 33 rows and 118 columns.
MIP Presolve added 1 rows and 1 columns.
Aggregator did 15 substitutions.
Reduced MIP has 40 rows, 70 columns, and 186 nonzeros.
Reduced MIP has 14 binaries, 1 generals, 0 SOSs, and 0 indicators.
Presolve time = 0.00 sec. (0.34 ticks)
Found incumbent of value 19.000000 after 0.00 sec. (0.50 ticks)
Probing fixed 0 vars, tightened 1 bounds.
Probing time = 0.00 sec. (0.02 ticks)
Tried aggregator 1 time.
Reduced MIP has 40 rows, 70 columns, and 186 nonzeros.
Reduced MIP has 14 binaries, 1 generals, 0 SOSs, and 0 indicators.
Presolve time = 0.00 sec. (0.09 ticks)
Probing time = 0.00 sec. (0.02 ticks)
Clique table members: 4.
MIP emphasis: balance optimality and feasibility.
MIP search method: dynamic search.
Parallel mode: none, using 1 thread.
Root relaxation solution time = 0.00 sec. (0.19 ticks)

        Nodes                                         Cuts/
   Node  Left     Objective  IInf  Best Integer    Best Bound    ItCnt     Gap

*     0+    0                           19.0000        6.0000            68.42%
      0     0        7.4269     5       19.0000        7.4269       40   60.91%
*     0+    0                           10.0000        7.4269            25.73%
      0     0        8.3102     7       10.0000      Cuts: 43       73   16.90%
      0     0        9.0000     2       10.0000      Cuts: 27       99   10.00%
      0     0        9.0000     7       10.0000      Cuts: 14      119   10.00%
      0     0        cutoff             10.0000                    152    0.00%
Elapsed time = 0.01 sec. (3.04 ticks, tree = 0.01 MB, solutions = 2)

Clique cuts applied:  2
Cover cuts applied:  3
Implied bound cuts applied:  1
Flow cuts applied:  6
Mixed integer rounding cuts applied:  2
Gomory fractional cuts applied:  1

Root node processing (before b&c):
  Real time             =    0.01 sec. (3.05 ticks)
Sequential b&c:
  Real time             =    0.00 sec. (0.00 ticks)
                          ------------
Total (root+branch&cut) =    0.01 sec. (3.05 ticks)

Solution pool: 2 solutions saved.

MIP - Integer optimal solution:  Objective =  1.0000000000e+01
Solution time =    0.01 sec.  Iterations = 152  Nodes = 0
Deterministic time = 3.05 ticks  (388.45 ticks/sec)


Incumbent solution written to file '/tmp/tmpgN7yGM.cplex.sol'.

Log started (V12.6.3.0) Mon Jul 24 16:45:28 2017

New value for default parallel thread count: 1

Problem '/tmp/tmpgevF8b.pyomo.lp' read.
Read time = 0.00 sec. (0.02 ticks)

Problem name         : /tmp/tmpgevF8b.pyomo.lp
Objective sense      : Minimize
Variables            :     202  [Nneg: 181,  Binary: 20,  General Integer: 1]
Objective nonzeros   :       1
Linear constraints   :      87  [Less: 20,  Equal: 67]
  Nonzeros           :     541
  RHS nonzeros       :      31

Variables            : Min LB: 0.000000         Max UB: 1.000000       
Objective nonzeros   : Min   : 1.000000         Max   : 1.000000       
Linear constraints   :
  Nonzeros           : Min   : 1.000000         Max   : 909.8320       
  RHS nonzeros       : Min   : 1.000000         Max   : 1206.000       
Tried aggregator 3 times.
MIP Presolve eliminated 33 rows and 118 columns.
MIP Presolve added 1 rows and 1 columns.
Aggregator did 15 substitutions.
Reduced MIP has 40 rows, 70 columns, and 186 nonzeros.
Reduced MIP has 14 binaries, 1 generals, 0 SOSs, and 0 indicators.
Presolve time = 0.00 sec. (0.34 ticks)
Found incumbent of value 19.000000 after 0.00 sec. (0.50 ticks)
Probing fixed 0 vars, tightened 1 bounds.
Probing time = 0.00 sec. (0.02 ticks)
Tried aggregator 1 time.
Reduced MIP has 40 rows, 70 columns, and 186 nonzeros.
Reduced MIP has 14 binaries, 1 generals, 0 SOSs, and 0 indicators.
Presolve time = 0.00 sec. (0.09 ticks)
Probing time = 0.00 sec. (0.02 ticks)
Clique table members: 4.
MIP emphasis: balance optimality and feasibility.
MIP search method: dynamic search.
Parallel mode: none, using 1 thread.
Root relaxation solution time = 0.00 sec. (0.19 ticks)

        Nodes                                         Cuts/
   Node  Left     Objective  IInf  Best Integer    Best Bound    ItCnt     Gap

*     0+    0                           19.0000        6.0000            68.42%
      0     0        7.4269     5       19.0000        7.4269       40   60.91%
*     0+    0                           10.0000        7.4269            25.73%
      0     0        8.3102     7       10.0000      Cuts: 43       73   16.90%
      0     0        9.0000     2       10.0000      Cuts: 27       99   10.00%
      0     0        9.0000     7       10.0000      Cuts: 14      119   10.00%
      0     0        cutoff             10.0000                    152    0.00%
Elapsed time = 0.01 sec. (3.04 ticks, tree = 0.01 MB, solutions = 2)

Clique cuts applied:  2
Cover cuts applied:  3
Implied bound cuts applied:  1
Flow cuts applied:  6
Mixed integer rounding cuts applied:  2
Gomory fractional cuts applied:  1

Root node processing (before b&c):
  Real time             =    0.01 sec. (3.05 ticks)
Sequential b&c:
  Real time             =    0.00 sec. (0.00 ticks)
                          ------------
Total (root+branch&cut) =    0.01 sec. (3.05 ticks)

Solution pool: 2 solutions saved.

MIP - Integer optimal solution:  Objective =  1.0000000000e+01
Solution time =    0.01 sec.  Iterations = 152  Nodes = 0
Deterministic time = 3.05 ticks  (338.99 ticks/sec)


Incumbent solution written to file '/tmp/tmpqEKWEN.cplex.sol'.

Log started (V12.6.3.0) Mon Jul 24 16:58:14 2017

New value for default parallel thread count: 1

Problem '/tmp/tmp4IH9Bj.pyomo.lp' read.
Read time = 0.00 sec. (0.02 ticks)

Problem name         : /tmp/tmp4IH9Bj.pyomo.lp
Objective sense      : Minimize
Variables            :     202  [Nneg: 181,  Binary: 20,  General Integer: 1]
Objective nonzeros   :       1
Linear constraints   :      87  [Less: 20,  Equal: 67]
  Nonzeros           :     541
  RHS nonzeros       :      31

Variables            : Min LB: 0.000000         Max UB: 1.000000       
Objective nonzeros   : Min   : 1.000000         Max   : 1.000000       
Linear constraints   :
  Nonzeros           : Min   : 1.000000         Max   : 909.8320       
  RHS nonzeros       : Min   : 1.000000         Max   : 1206.000       
Tried aggregator 3 times.
MIP Presolve eliminated 33 rows and 118 columns.
MIP Presolve added 1 rows and 1 columns.
Aggregator did 15 substitutions.
Reduced MIP has 40 rows, 70 columns, and 186 nonzeros.
Reduced MIP has 14 binaries, 1 generals, 0 SOSs, and 0 indicators.
Presolve time = 0.00 sec. (0.34 ticks)
Found incumbent of value 19.000000 after 0.00 sec. (0.50 ticks)
Probing fixed 0 vars, tightened 1 bounds.
Probing time = 0.00 sec. (0.02 ticks)
Tried aggregator 1 time.
Reduced MIP has 40 rows, 70 columns, and 186 nonzeros.
Reduced MIP has 14 binaries, 1 generals, 0 SOSs, and 0 indicators.
Presolve time = 0.00 sec. (0.09 ticks)
Probing time = 0.00 sec. (0.02 ticks)
Clique table members: 4.
MIP emphasis: balance optimality and feasibility.
MIP search method: dynamic search.
Parallel mode: none, using 1 thread.
Root relaxation solution time = 0.00 sec. (0.19 ticks)

        Nodes                                         Cuts/
   Node  Left     Objective  IInf  Best Integer    Best Bound    ItCnt     Gap

*     0+    0                           19.0000        6.0000            68.42%
      0     0        7.4269     5       19.0000        7.4269       40   60.91%
*     0+    0                           10.0000        7.4269            25.73%
      0     0        8.3102     7       10.0000      Cuts: 43       73   16.90%
      0     0        9.0000     2       10.0000      Cuts: 27       99   10.00%
      0     0        9.0000     7       10.0000      Cuts: 14      119   10.00%
      0     0        cutoff             10.0000                    152    0.00%
Elapsed time = 0.01 sec. (3.04 ticks, tree = 0.01 MB, solutions = 2)

Clique cuts applied:  2
Cover cuts applied:  3
Implied bound cuts applied:  1
Flow cuts applied:  6
Mixed integer rounding cuts applied:  2
Gomory fractional cuts applied:  1

Root node processing (before b&c):
  Real time             =    0.01 sec. (3.05 ticks)
Sequential b&c:
  Real time             =    0.00 sec. (0.00 ticks)
                          ------------
Total (root+branch&cut) =    0.01 sec. (3.05 ticks)

Solution pool: 2 solutions saved.

MIP - Integer optimal solution:  Objective =  1.0000000000e+01
Solution time =    0.01 sec.  Iterations = 152  Nodes = 0
Deterministic time = 3.05 ticks  (522.11 ticks/sec)


Incumbent solution written to file '/tmp/tmpM76xhV.cplex.sol'.

Log started (V12.6.3.0) Wed Jul 26 13:54:52 2017

New value for default parallel thread count: 1

Problem '/tmp/tmpmhPQO5.pyomo.lp' read.
Read time = 0.00 sec. (0.02 ticks)

Problem name         : /tmp/tmpmhPQO5.pyomo.lp
Objective sense      : Minimize
Variables            :     202  [Nneg: 181,  Binary: 20,  General Integer: 1]
Objective nonzeros   :       1
Linear constraints   :      87  [Less: 20,  Equal: 67]
  Nonzeros           :     541
  RHS nonzeros       :      31

Variables            : Min LB: 0.000000         Max UB: 1.000000       
Objective nonzeros   : Min   : 1.000000         Max   : 1.000000       
Linear constraints   :
  Nonzeros           : Min   : 1.000000         Max   : 909.8320       
  RHS nonzeros       : Min   : 1.000000         Max   : 1206.000       
Tried aggregator 3 times.
MIP Presolve eliminated 33 rows and 118 columns.
MIP Presolve added 1 rows and 1 columns.
Aggregator did 15 substitutions.
Reduced MIP has 40 rows, 70 columns, and 186 nonzeros.
Reduced MIP has 14 binaries, 1 generals, 0 SOSs, and 0 indicators.
Presolve time = 0.00 sec. (0.34 ticks)
Found incumbent of value 19.000000 after 0.00 sec. (0.50 ticks)
Probing fixed 0 vars, tightened 1 bounds.
Probing time = 0.00 sec. (0.02 ticks)
Tried aggregator 1 time.
Reduced MIP has 40 rows, 70 columns, and 186 nonzeros.
Reduced MIP has 14 binaries, 1 generals, 0 SOSs, and 0 indicators.
Presolve time = 0.00 sec. (0.09 ticks)
Probing time = 0.00 sec. (0.02 ticks)
Clique table members: 4.
MIP emphasis: balance optimality and feasibility.
MIP search method: dynamic search.
Parallel mode: none, using 1 thread.
Root relaxation solution time = 0.00 sec. (0.19 ticks)

        Nodes                                         Cuts/
   Node  Left     Objective  IInf  Best Integer    Best Bound    ItCnt     Gap

*     0+    0                           19.0000        6.0000            68.42%
      0     0        7.4269     5       19.0000        7.4269       40   60.91%
*     0+    0                           10.0000        7.4269            25.73%
      0     0        8.3102     7       10.0000      Cuts: 43       73   16.90%
      0     0        9.0000     2       10.0000      Cuts: 27       99   10.00%
      0     0        9.0000     7       10.0000      Cuts: 14      119   10.00%
      0     0        cutoff             10.0000                    152    0.00%
Elapsed time = 0.01 sec. (3.04 ticks, tree = 0.01 MB, solutions = 2)

Clique cuts applied:  2
Cover cuts applied:  3
Implied bound cuts applied:  1
Flow cuts applied:  6
Mixed integer rounding cuts applied:  2
Gomory fractional cuts applied:  1

Root node processing (before b&c):
  Real time             =    0.01 sec. (3.05 ticks)
Sequential b&c:
  Real time             =    0.00 sec. (0.00 ticks)
                          ------------
Total (root+branch&cut) =    0.01 sec. (3.05 ticks)

Solution pool: 2 solutions saved.

MIP - Integer optimal solution:  Objective =  1.0000000000e+01
Solution time =    0.01 sec.  Iterations = 152  Nodes = 0
Deterministic time = 3.05 ticks  (522.64 ticks/sec)


Incumbent solution written to file '/tmp/tmpapGJPr.cplex.sol'.
